NAME           C:\Bruker\Hvattum\knapsack\Problems\class1\100-5-13.mps
ROWS
 N  OBJ
 L  CONSTR1
 L  CONSTR2
 L  CONSTR3
 L  CONSTR4
 L  CONSTR5
COLUMNS
    INT0001   'MARKER'  'INTORG'
    X1        OBJ       654
    X1        CONSTR1   22
    X1        CONSTR2   807
    X1        CONSTR3   417
    X1        CONSTR4   779
    X1        CONSTR5   846
    X2        OBJ       668
    X2        CONSTR1   941
    X2        CONSTR2   44
    X2        CONSTR3   957
    X2        CONSTR4   424
    X2        CONSTR5   738
    X3        OBJ       929
    X3        CONSTR1   982
    X3        CONSTR2   590
    X3        CONSTR3   629
    X3        CONSTR4   839
    X3        CONSTR5   345
    X4        OBJ       879
    X4        CONSTR1   821
    X4        CONSTR2   202
    X4        CONSTR3   830
    X4        CONSTR4   29
    X4        CONSTR5   51
    X5        OBJ       767
    X5        CONSTR1   7
    X5        CONSTR2   410
    X5        CONSTR3   195
    X5        CONSTR4   425
    X5        CONSTR5   806
    X6        OBJ       517
    X6        CONSTR1   16
    X6        CONSTR2   979
    X6        CONSTR3   358
    X6        CONSTR4   301
    X6        CONSTR5   255
    X7        OBJ       343
    X7        CONSTR1   471
    X7        CONSTR2   268
    X7        CONSTR3   194
    X7        CONSTR4   140
    X7        CONSTR5   88
    X8        OBJ       571
    X8        CONSTR1   932
    X8        CONSTR2   9
    X8        CONSTR3   354
    X8        CONSTR4   571
    X8        CONSTR5   385
    X9        OBJ       788
    X9        CONSTR1   107
    X9        CONSTR2   250
    X9        CONSTR3   898
    X9        CONSTR4   101
    X9        CONSTR5   574
    X10       OBJ       493
    X10       CONSTR1   465
    X10       CONSTR2   217
    X10       CONSTR3   96
    X10       CONSTR4   181
    X10       CONSTR5   122
    X11       OBJ       635
    X11       CONSTR1   692
    X11       CONSTR2   326
    X11       CONSTR3   886
    X11       CONSTR4   362
    X11       CONSTR5   620
    X12       OBJ       900
    X12       CONSTR1   528
    X12       CONSTR2   191
    X12       CONSTR3   269
    X12       CONSTR4   439
    X12       CONSTR5   899
    X13       OBJ       961
    X13       CONSTR1   391
    X13       CONSTR2   753
    X13       CONSTR3   824
    X13       CONSTR4   142
    X13       CONSTR5   617
    X14       OBJ       765
    X14       CONSTR1   431
    X14       CONSTR2   833
    X14       CONSTR3   501
    X14       CONSTR4   401
    X14       CONSTR5   50
    X15       OBJ       650
    X15       CONSTR1   442
    X15       CONSTR2   303
    X15       CONSTR3   914
    X15       CONSTR4   467
    X15       CONSTR5   905
    X16       OBJ       426
    X16       CONSTR1   68
    X16       CONSTR2   370
    X16       CONSTR3   107
    X16       CONSTR4   385
    X16       CONSTR5   190
    X17       OBJ       786
    X17       CONSTR1   183
    X17       CONSTR2   816
    X17       CONSTR3   689
    X17       CONSTR4   910
    X17       CONSTR5   271
    X18       OBJ       655
    X18       CONSTR1   642
    X18       CONSTR2   191
    X18       CONSTR3   981
    X18       CONSTR4   23
    X18       CONSTR5   605
    X19       OBJ       907
    X19       CONSTR1   784
    X19       CONSTR2   641
    X19       CONSTR3   231
    X19       CONSTR4   407
    X19       CONSTR5   213
    X20       OBJ       852
    X20       CONSTR1   554
    X20       CONSTR2   412
    X20       CONSTR3   551
    X20       CONSTR4   139
    X20       CONSTR5   695
    X21       OBJ       615
    X21       CONSTR1   4
    X21       CONSTR2   240
    X21       CONSTR3   661
    X21       CONSTR4   268
    X21       CONSTR5   133
    X22       OBJ       764
    X22       CONSTR1   723
    X22       CONSTR2   982
    X22       CONSTR3   220
    X22       CONSTR4   691
    X22       CONSTR5   805
    X23       OBJ       600
    X23       CONSTR1   334
    X23       CONSTR2   432
    X23       CONSTR3   762
    X23       CONSTR4   933
    X23       CONSTR5   230
    X24       OBJ       879
    X24       CONSTR1   683
    X24       CONSTR2   22
    X24       CONSTR3   612
    X24       CONSTR4   546
    X24       CONSTR5   322
    X25       OBJ       524
    X25       CONSTR1   219
    X25       CONSTR2   304
    X25       CONSTR3   107
    X25       CONSTR4   50
    X25       CONSTR5   123
    X26       OBJ       920
    X26       CONSTR1   708
    X26       CONSTR2   161
    X26       CONSTR3   572
    X26       CONSTR4   965
    X26       CONSTR5   833
    X27       OBJ       652
    X27       CONSTR1   102
    X27       CONSTR2   793
    X27       CONSTR3   928
    X27       CONSTR4   55
    X27       CONSTR5   312
    X28       OBJ       636
    X28       CONSTR1   878
    X28       CONSTR2   169
    X28       CONSTR3   204
    X28       CONSTR4   606
    X28       CONSTR5   410
    X29       OBJ       842
    X29       CONSTR1   286
    X29       CONSTR2   619
    X29       CONSTR3   976
    X29       CONSTR4   319
    X29       CONSTR5   691
    X30       OBJ       706
    X30       CONSTR1   167
    X30       CONSTR2   888
    X30       CONSTR3   59
    X30       CONSTR4   41
    X30       CONSTR5   435
    X31       OBJ       630
    X31       CONSTR1   149
    X31       CONSTR2   630
    X31       CONSTR3   786
    X31       CONSTR4   630
    X31       CONSTR5   851
    X32       OBJ       828
    X32       CONSTR1   977
    X32       CONSTR2   268
    X32       CONSTR3   909
    X32       CONSTR4   346
    X32       CONSTR5   79
    X33       OBJ       883
    X33       CONSTR1   574
    X33       CONSTR2   671
    X33       CONSTR3   794
    X33       CONSTR4   946
    X33       CONSTR5   247
    X34       OBJ       595
    X34       CONSTR1   624
    X34       CONSTR2   495
    X34       CONSTR3   26
    X34       CONSTR4   41
    X34       CONSTR5   636
    X35       OBJ       1029
    X35       CONSTR1   984
    X35       CONSTR2   679
    X35       CONSTR3   694
    X35       CONSTR4   475
    X35       CONSTR5   742
    X36       OBJ       757
    X36       CONSTR1   99
    X36       CONSTR2   508
    X36       CONSTR3   982
    X36       CONSTR4   194
    X36       CONSTR5   371
    X37       OBJ       903
    X37       CONSTR1   447
    X37       CONSTR2   998
    X37       CONSTR3   312
    X37       CONSTR4   547
    X37       CONSTR5   383
    X38       OBJ       516
    X38       CONSTR1   945
    X38       CONSTR2   453
    X38       CONSTR3   163
    X38       CONSTR4   202
    X38       CONSTR5   370
    X39       OBJ       647
    X39       CONSTR1   814
    X39       CONSTR2   423
    X39       CONSTR3   723
    X39       CONSTR4   536
    X39       CONSTR5   685
    X40       OBJ       427
    X40       CONSTR1   454
    X40       CONSTR2   7
    X40       CONSTR3   157
    X40       CONSTR4   343
    X40       CONSTR5   387
    X41       OBJ       1059
    X41       CONSTR1   617
    X41       CONSTR2   452
    X41       CONSTR3   709
    X41       CONSTR4   697
    X41       CONSTR5   661
    X42       OBJ       833
    X42       CONSTR1   865
    X42       CONSTR2   441
    X42       CONSTR3   472
    X42       CONSTR4   697
    X42       CONSTR5   260
    X43       OBJ       560
    X43       CONSTR1   482
    X43       CONSTR2   92
    X43       CONSTR3   379
    X43       CONSTR4   794
    X43       CONSTR5   388
    X44       OBJ       766
    X44       CONSTR1   333
    X44       CONSTR2   703
    X44       CONSTR3   894
    X44       CONSTR4   676
    X44       CONSTR5   573
    X45       OBJ       900
    X45       CONSTR1   887
    X45       CONSTR2   677
    X45       CONSTR3   576
    X45       CONSTR4   603
    X45       CONSTR5   209
    X46       OBJ       680
    X46       CONSTR1   244
    X46       CONSTR2   476
    X46       CONSTR3   595
    X46       CONSTR4   44
    X46       CONSTR5   227
    X47       OBJ       519
    X47       CONSTR1   669
    X47       CONSTR2   484
    X47       CONSTR3   94
    X47       CONSTR4   88
    X47       CONSTR5   313
    X48       OBJ       671
    X48       CONSTR1   105
    X48       CONSTR2   535
    X48       CONSTR3   587
    X48       CONSTR4   669
    X48       CONSTR5   406
    X49       OBJ       594
    X49       CONSTR1   26
    X49       CONSTR2   235
    X49       CONSTR3   469
    X49       CONSTR4   311
    X49       CONSTR5   155
    X50       OBJ       1092
    X50       CONSTR1   592
    X50       CONSTR2   671
    X50       CONSTR3   697
    X50       CONSTR4   992
    X50       CONSTR5   713
    X51       OBJ       601
    X51       CONSTR1   277
    X51       CONSTR2   432
    X51       CONSTR3   154
    X51       CONSTR4   8
    X51       CONSTR5   522
    X52       OBJ       407
    X52       CONSTR1   76
    X52       CONSTR2   119
    X52       CONSTR3   742
    X52       CONSTR4   165
    X52       CONSTR5   657
    X53       OBJ       897
    X53       CONSTR1   372
    X53       CONSTR2   738
    X53       CONSTR3   193
    X53       CONSTR4   716
    X53       CONSTR5   972
    X54       OBJ       770
    X54       CONSTR1   565
    X54       CONSTR2   659
    X54       CONSTR3   773
    X54       CONSTR4   590
    X54       CONSTR5   7
    X55       OBJ       727
    X55       CONSTR1   408
    X55       CONSTR2   673
    X55       CONSTR3   796
    X55       CONSTR4   590
    X55       CONSTR5   172
    X56       OBJ       503
    X56       CONSTR1   345
    X56       CONSTR2   7
    X56       CONSTR3   639
    X56       CONSTR4   636
    X56       CONSTR5   358
    X57       OBJ       605
    X57       CONSTR1   524
    X57       CONSTR2   589
    X57       CONSTR3   615
    X57       CONSTR4   288
    X57       CONSTR5   299
    X58       OBJ       820
    X58       CONSTR1   786
    X58       CONSTR2   26
    X58       CONSTR3   270
    X58       CONSTR4   260
    X58       CONSTR5   496
    X59       OBJ       882
    X59       CONSTR1   406
    X59       CONSTR2   613
    X59       CONSTR3   845
    X59       CONSTR4   28
    X59       CONSTR5   271
    X60       OBJ       585
    X60       CONSTR1   441
    X60       CONSTR2   437
    X60       CONSTR3   726
    X60       CONSTR4   322
    X60       CONSTR5   344
    X61       OBJ       938
    X61       CONSTR1   20
    X61       CONSTR2   141
    X61       CONSTR3   390
    X61       CONSTR4   929
    X61       CONSTR5   936
    X62       OBJ       834
    X62       CONSTR1   704
    X62       CONSTR2   945
    X62       CONSTR3   200
    X62       CONSTR4   437
    X62       CONSTR5   638
    X63       OBJ       701
    X63       CONSTR1   217
    X63       CONSTR2   752
    X63       CONSTR3   862
    X63       CONSTR4   599
    X63       CONSTR5   290
    X64       OBJ       513
    X64       CONSTR1   167
    X64       CONSTR2   655
    X64       CONSTR3   328
    X64       CONSTR4   79
    X64       CONSTR5   709
    X65       OBJ       1024
    X65       CONSTR1   748
    X65       CONSTR2   108
    X65       CONSTR3   927
    X65       CONSTR4   892
    X65       CONSTR5   426
    X66       OBJ       575
    X66       CONSTR1   151
    X66       CONSTR2   634
    X66       CONSTR3   411
    X66       CONSTR4   120
    X66       CONSTR5   600
    X67       OBJ       720
    X67       CONSTR1   518
    X67       CONSTR2   578
    X67       CONSTR3   857
    X67       CONSTR4   255
    X67       CONSTR5   978
    X68       OBJ       763
    X68       CONSTR1   606
    X68       CONSTR2   95
    X68       CONSTR3   866
    X68       CONSTR4   158
    X68       CONSTR5   532
    X69       OBJ       650
    X69       CONSTR1   596
    X69       CONSTR2   501
    X69       CONSTR3   232
    X69       CONSTR4   319
    X69       CONSTR5   530
    X70       OBJ       530
    X70       CONSTR1   170
    X70       CONSTR2   99
    X70       CONSTR3   638
    X70       CONSTR4   297
    X70       CONSTR5   376
    X71       OBJ       710
    X71       CONSTR1   369
    X71       CONSTR2   229
    X71       CONSTR3   93
    X71       CONSTR4   373
    X71       CONSTR5   754
    X72       OBJ       772
    X72       CONSTR1   184
    X72       CONSTR2   289
    X72       CONSTR3   814
    X72       CONSTR4   540
    X72       CONSTR5   800
    X73       OBJ       637
    X73       CONSTR1   491
    X73       CONSTR2   994
    X73       CONSTR3   402
    X73       CONSTR4   399
    X73       CONSTR5   148
    X74       OBJ       608
    X74       CONSTR1   364
    X74       CONSTR2   1000
    X74       CONSTR3   10
    X74       CONSTR4   946
    X74       CONSTR5   350
    X75       OBJ       393
    X75       CONSTR1   874
    X75       CONSTR2   179
    X75       CONSTR3   79
    X75       CONSTR4   282
    X75       CONSTR5   249
    X76       OBJ       817
    X76       CONSTR1   317
    X76       CONSTR2   390
    X76       CONSTR3   336
    X76       CONSTR4   813
    X76       CONSTR5   838
    X77       OBJ       720
    X77       CONSTR1   235
    X77       CONSTR2   770
    X77       CONSTR3   481
    X77       CONSTR4   576
    X77       CONSTR5   344
    X78       OBJ       1085
    X78       CONSTR1   975
    X78       CONSTR2   785
    X78       CONSTR3   414
    X78       CONSTR4   455
    X78       CONSTR5   927
    X79       OBJ       735
    X79       CONSTR1   481
    X79       CONSTR2   577
    X79       CONSTR3   232
    X79       CONSTR4   595
    X79       CONSTR5   622
    X80       OBJ       917
    X80       CONSTR1   901
    X80       CONSTR2   94
    X80       CONSTR3   951
    X80       CONSTR4   193
    X80       CONSTR5   840
    X81       OBJ       514
    X81       CONSTR1   225
    X81       CONSTR2   529
    X81       CONSTR3   233
    X81       CONSTR4   320
    X81       CONSTR5   908
    X82       OBJ       515
    X82       CONSTR1   320
    X82       CONSTR2   92
    X82       CONSTR3   605
    X82       CONSTR4   916
    X82       CONSTR5   67
    X83       OBJ       717
    X83       CONSTR1   786
    X83       CONSTR2   797
    X83       CONSTR3   227
    X83       CONSTR4   574
    X83       CONSTR5   660
    X84       OBJ       1109
    X84       CONSTR1   678
    X84       CONSTR2   727
    X84       CONSTR3   932
    X84       CONSTR4   632
    X84       CONSTR5   895
    X85       OBJ       698
    X85       CONSTR1   613
    X85       CONSTR2   53
    X85       CONSTR3   139
    X85       CONSTR4   963
    X85       CONSTR5   576
    X86       OBJ       900
    X86       CONSTR1   252
    X86       CONSTR2   24
    X86       CONSTR3   937
    X86       CONSTR4   351
    X86       CONSTR5   953
    X87       OBJ       729
    X87       CONSTR1   529
    X87       CONSTR2   193
    X87       CONSTR3   875
    X87       CONSTR4   636
    X87       CONSTR5   365
    X88       OBJ       534
    X88       CONSTR1   652
    X88       CONSTR2   168
    X88       CONSTR3   132
    X88       CONSTR4   827
    X88       CONSTR5   347
    X89       OBJ       608
    X89       CONSTR1   70
    X89       CONSTR2   73
    X89       CONSTR3   210
    X89       CONSTR4   228
    X89       CONSTR5   919
    X90       OBJ       633
    X90       CONSTR1   816
    X90       CONSTR2   310
    X90       CONSTR3   286
    X90       CONSTR4   669
    X90       CONSTR5   555
    X91       OBJ       558
    X91       CONSTR1   284
    X91       CONSTR2   109
    X91       CONSTR3   415
    X91       CONSTR4   836
    X91       CONSTR5   608
    X92       OBJ       947
    X92       CONSTR1   468
    X92       CONSTR2   924
    X92       CONSTR3   54
    X92       CONSTR4   294
    X92       CONSTR5   546
    X93       OBJ       1128
    X93       CONSTR1   482
    X93       CONSTR2   628
    X93       CONSTR3   649
    X93       CONSTR4   768
    X93       CONSTR5   672
    X94       OBJ       586
    X94       CONSTR1   691
    X94       CONSTR2   80
    X94       CONSTR3   742
    X94       CONSTR4   917
    X94       CONSTR5   241
    X95       OBJ       991
    X95       CONSTR1   683
    X95       CONSTR2   190
    X95       CONSTR3   677
    X95       CONSTR4   851
    X95       CONSTR5   122
    X96       OBJ       998
    X96       CONSTR1   591
    X96       CONSTR2   663
    X96       CONSTR3   571
    X96       CONSTR4   351
    X96       CONSTR5   481
    X97       OBJ       724
    X97       CONSTR1   128
    X97       CONSTR2   279
    X97       CONSTR3   969
    X97       CONSTR4   642
    X97       CONSTR5   840
    X98       OBJ       653
    X98       CONSTR1   53
    X98       CONSTR2   454
    X98       CONSTR3   640
    X98       CONSTR4   942
    X98       CONSTR5   806
    X99       OBJ       766
    X99       CONSTR1   664
    X99       CONSTR2   904
    X99       CONSTR3   375
    X99       CONSTR4   645
    X99       CONSTR5   526
    X100      OBJ       722
    X100      CONSTR1   431
    X100      CONSTR2   106
    X100      CONSTR3   976
    X100      CONSTR4   455
    X100      CONSTR5   710
    INT0001   'MARKER'  'INTEND'
RHS
    RHS10001  CONSTR1   23587
    RHS10001  CONSTR2   22266
    RHS10001  CONSTR3   26460
    RHS10001  CONSTR4   23724
    RHS10001  CONSTR5   25004
BOUNDS
 BV BND       X1        .00
 BV BND       X2        .00
 BV BND       X3        .00
 BV BND       X4        .00
 BV BND       X5        .00
 BV BND       X6        .00
 BV BND       X7        .00
 BV BND       X8        .00
 BV BND       X9        .00
 BV BND       X10       .00
 BV BND       X11       .00
 BV BND       X12       .00
 BV BND       X13       .00
 BV BND       X14       .00
 BV BND       X15       .00
 BV BND       X16       .00
 BV BND       X17       .00
 BV BND       X18       .00
 BV BND       X19       .00
 BV BND       X20       .00
 BV BND       X21       .00
 BV BND       X22       .00
 BV BND       X23       .00
 BV BND       X24       .00
 BV BND       X25       .00
 BV BND       X26       .00
 BV BND       X27       .00
 BV BND       X28       .00
 BV BND       X29       .00
 BV BND       X30       .00
 BV BND       X31       .00
 BV BND       X32       .00
 BV BND       X33       .00
 BV BND       X34       .00
 BV BND       X35       .00
 BV BND       X36       .00
 BV BND       X37       .00
 BV BND       X38       .00
 BV BND       X39       .00
 BV BND       X40       .00
 BV BND       X41       .00
 BV BND       X42       .00
 BV BND       X43       .00
 BV BND       X44       .00
 BV BND       X45       .00
 BV BND       X46       .00
 BV BND       X47       .00
 BV BND       X48       .00
 BV BND       X49       .00
 BV BND       X50       .00
 BV BND       X51       .00
 BV BND       X52       .00
 BV BND       X53       .00
 BV BND       X54       .00
 BV BND       X55       .00
 BV BND       X56       .00
 BV BND       X57       .00
 BV BND       X58       .00
 BV BND       X59       .00
 BV BND       X60       .00
 BV BND       X61       .00
 BV BND       X62       .00
 BV BND       X63       .00
 BV BND       X64       .00
 BV BND       X65       .00
 BV BND       X66       .00
 BV BND       X67       .00
 BV BND       X68       .00
 BV BND       X69       .00
 BV BND       X70       .00
 BV BND       X71       .00
 BV BND       X72       .00
 BV BND       X73       .00
 BV BND       X74       .00
 BV BND       X75       .00
 BV BND       X76       .00
 BV BND       X77       .00
 BV BND       X78       .00
 BV BND       X79       .00
 BV BND       X80       .00
 BV BND       X81       .00
 BV BND       X82       .00
 BV BND       X83       .00
 BV BND       X84       .00
 BV BND       X85       .00
 BV BND       X86       .00
 BV BND       X87       .00
 BV BND       X88       .00
 BV BND       X89       .00
 BV BND       X90       .00
 BV BND       X91       .00
 BV BND       X92       .00
 BV BND       X93       .00
 BV BND       X94       .00
 BV BND       X95       .00
 BV BND       X96       .00
 BV BND       X97       .00
 BV BND       X98       .00
 BV BND       X99       .00
 BV BND       X100      .00
ENDATA
